n=5;

blanks = [
  1,4,
  2,4,
  3,3, 3,4,
  4,1,
  5,1
];

kakuro = [|
  1,1, 1,2, 1,3, 0,0, 0,0,  9|  
  2,1, 2,2, 2,3, 0,0, 0,0,  13|
  3,1, 3,2, 0,0, 0,0, 0,0,  13|
  4,2, 4,3, 4,4, 0,0, 0,0,  7|
  5,2, 5,3, 5,4, 0,0, 0,0,  19|

  1,1, 2,1, 3,1, 0,0, 0,0,  9| 
  1,2, 2,2, 3,2, 4,2, 5,2,  34| 
  1,3, 2,3, 0,0, 0,0, 0,0,  4| 
  4,3, 5,3, 0,0, 0,0, 0,0,  11| 
  4,4, 5,4, 0,0, 0,0, 0,0,  3|];